Reading model...
...model read.
creating competitive generators file...
...competitive generators recorded.
Loading data...
.. real-time data read.
Compiling instance...
...instance created.
Creating Offer Mitigation (model will solve as dispatch if TRUE)...
NOTE: storage offers will not be mitigated
...storage offer mitigation file created
Converting model to MPEC...
...converted
NOTE: initial MIP solve with only storage competitive to get feasible solution
Solving...

Welcome to IBM(R) ILOG(R) CPLEX(R) Interactive Optimizer 12.9.0.0
  with Simplex, Mixed Integer & Barrier Optimizers
5725-A06 5725-A29 5724-Y48 5724-Y49 5724-Y54 5724-Y55 5655-Y21
Copyright IBM Corp. 1988, 2019.  All Rights Reserved.

Type 'help' for a list of available commands.
Type 'help' followed by a command name for more
information on commands.

CPLEX> Logfile 'cplex.log' closed.
Logfile 'C:\Users\llavin\Desktop\test826\logs\tmp6h01p2xn.cplex.log' open.
CPLEX> New value for parallel optimization mode: -1
CPLEX> New value for mixed integer optimality gap tolerance: 0.01
CPLEX> New value for feasibility tolerance: 1e-09
CPLEX> New value for deterministic time limit in ticks: 150000
CPLEX> Problem 'C:\Users\llavin\Desktop\test826\logs\tmpx04tgvop.pyomo.lp' read.
Read time = 0.52 sec. (28.52 ticks)
CPLEX> Problem name         : C:\Users\llavin\Desktop\test826\logs\tmpx04tgvop.pyomo.lp
Objective sense      : Maximize
Variables            :  107781  [Nneg: 1,  Box: 44056,  Free: 8928,
                                 Binary: 54796]
Objective nonzeros   :   17376
Linear constraints   :  246901  [Less: 82866,  Greater: 118424,  Equal: 45611]
  Nonzeros           :  618076
  RHS nonzeros       :  134880

Variables            : Min LB: -5000.000        Max UB: 1000000.       
Objective nonzeros   : Min   : 0.008333333      Max   : 3000.000       
Linear constraints   :
  Nonzeros           : Min   : 0.008333333      Max   : 1000000.       
  RHS nonzeros       : Min   : 0.008333333      Max   : 1000000.       
CPLEX> CPXPARAM_Parallel                                -1
CPXPARAM_Simplex_Tolerances_Feasibility          1.0000000000000001e-09
CPXPARAM_DetTimeLimit                            150000
CPXPARAM_MIP_Tolerances_MIPGap                   0.01
Tried aggregator 3 times.
MIP Presolve eliminated 181458 rows and 41480 columns.
MIP Presolve added 6047 rows and 0 columns.
MIP Presolve modified 50659 coefficients.
Aggregator did 25837 substitutions.
Reduced MIP has 45653 rows, 38832 columns, and 149799 nonzeros.
Reduced MIP has 15275 binaries, 0 generals, 0 SOSs, and 0 indicators.
Presolve time = 0.63 sec. (383.55 ticks)
Probing fixed 759 vars, tightened 8698 bounds.
Probing time = 0.36 sec. (14.54 ticks)
Tried aggregator 2 times.
MIP Presolve eliminated 1712 rows and 1520 columns.
MIP Presolve modified 5328 coefficients.
Aggregator did 62 substitutions.
Reduced MIP has 43879 rows, 37250 columns, and 144669 nonzeros.
Reduced MIP has 14515 binaries, 0 generals, 0 SOSs, and 0 indicators.
Presolve time = 0.24 sec. (217.81 ticks)
Probing fixed 1 vars, tightened 465 bounds.
Probing time = 0.47 sec. (18.24 ticks)
Clique table members: 87610.
MIP emphasis: balance optimality and feasibility.
MIP search method: dynamic search.
Parallel mode: opportunistic, using up to 32 threads.
Root relaxation solution time = 1.16 sec. (1808.76 ticks)

        Nodes                                         Cuts/
   Node  Left     Objective  IInf  Best Integer    Best Bound    ItCnt     Gap

      0     0      662.6278   352                    662.6278    11035         
*     0+    0                          662.6278      662.6278             0.00%
      0     0        cutoff            662.6278      662.6278    11043    0.00%
Elapsed time = 4.70 sec. (4212.72 ticks, tree = 0.01 MB, solutions = 1)

Root node processing (before b&c):
  Real time             =    4.73 sec. (4216.38 ticks)
Parallel b&c, 32 threads:
  Real time             =    0.00 sec. (0.00 ticks)
  Sync time (average)   =    0.00 sec.
  Wait time (average)   =    0.00 sec.
                          ------------
Total (root+branch&cut) =    4.73 sec. (4216.38 ticks)

Solution pool: 1 solution saved.

MIP - Integer optimal solution:  Objective =  6.6262775741e+02
Solution time =    4.75 sec.  Iterations = 11043  Nodes = 0
Deterministic time = 4216.69 ticks  (887.72 ticks/sec)

CPLEX> Incumbent solution written to file 'C:\Users\llavin\Desktop\test826\logs\tmpwy8yk02p.cplex.sol'.
CPLEX> NOTE: no warmstart specified for MIP iteration, default behavior is true
NOTE: resolving with all competitive generators using storage-only solution to warmstart
Solving...

Welcome to IBM(R) ILOG(R) CPLEX(R) Interactive Optimizer 12.9.0.0
  with Simplex, Mixed Integer & Barrier Optimizers
5725-A06 5725-A29 5724-Y48 5724-Y49 5724-Y54 5724-Y55 5655-Y21
Copyright IBM Corp. 1988, 2019.  All Rights Reserved.

Type 'help' for a list of available commands.
Type 'help' followed by a command name for more
information on commands.

CPLEX> Logfile 'cplex.log' closed.
Logfile 'C:\Users\llavin\Desktop\test826\logs\tmpi641wly0.cplex.log' open.
CPLEX> New value for parallel optimization mode: -1
CPLEX> New value for mixed integer optimality gap tolerance: 0.01
CPLEX> New value for feasibility tolerance: 1e-09
CPLEX> New value for deterministic time limit in ticks: 150000
CPLEX> Problem 'C:\Users\llavin\Desktop\test826\logs\tmplbvq8fco.pyomo.lp' read.
Read time = 0.53 sec. (28.56 ticks)
CPLEX> MIP start file 'C:\Users\llavin\Desktop\test826\logs\tmp6ak1xl78.cplex.mst' read.
CPLEX> Problem name         : C:\Users\llavin\Desktop\test826\logs\tmplbvq8fco.pyomo.lp
Objective sense      : Maximize
Variables            :  109221  [Nneg: 1,  Box: 45496,  Free: 8928,
                                 Binary: 54796]
Objective nonzeros   :   18768
Linear constraints   :  246901  [Less: 82866,  Greater: 118424,  Equal: 45611]
  Nonzeros           :  618076
  RHS nonzeros       :  134880

Variables            : Min LB: -5000.000        Max UB: 1000000.       
Objective nonzeros   : Min   : 0.008333333      Max   : 3000.000       
Linear constraints   :
  Nonzeros           : Min   : 0.008333333      Max   : 1000000.       
  RHS nonzeros       : Min   : 0.008333333      Max   : 1000000.       
CPLEX> CPXPARAM_Parallel                                -1
CPXPARAM_Simplex_Tolerances_Feasibility          1.0000000000000001e-09
CPXPARAM_DetTimeLimit                            150000
CPXPARAM_MIP_Tolerances_MIPGap                   0.01
Warning:  No solution found from 1 MIP starts.
Retaining values of one MIP start for possible repair.
Tried aggregator 3 times.
MIP Presolve eliminated 181458 rows and 42920 columns.
MIP Presolve added 6047 rows and 0 columns.
MIP Presolve modified 50659 coefficients.
Aggregator did 25837 substitutions.
Reduced MIP has 45653 rows, 38832 columns, and 149799 nonzeros.
Reduced MIP has 15275 binaries, 0 generals, 0 SOSs, and 0 indicators.
Presolve time = 0.61 sec. (384.26 ticks)
Probing fixed 759 vars, tightened 8698 bounds.
Probing time = 0.36 sec. (14.54 ticks)
Tried aggregator 2 times.
MIP Presolve eliminated 1712 rows and 1520 columns.
MIP Presolve modified 5328 coefficients.
Aggregator did 62 substitutions.
Reduced MIP has 43879 rows, 37250 columns, and 144669 nonzeros.
Reduced MIP has 14515 binaries, 0 generals, 0 SOSs, and 0 indicators.
Presolve time = 0.25 sec. (217.82 ticks)
Probing fixed 1 vars, tightened 465 bounds.
Probing time = 0.48 sec. (18.24 ticks)
Clique table members: 87610.
MIP emphasis: balance optimality and feasibility.
MIP search method: dynamic search.
Parallel mode: opportunistic, using up to 32 threads.
Root relaxation solution time = 1.02 sec. (1866.53 ticks)

        Nodes                                         Cuts/
   Node  Left     Objective  IInf  Best Integer    Best Bound    ItCnt     Gap

      0     0    20421.2435   390                  20421.2435     9812         
      0     0    20421.2435    79               Flowcuts: 124     9843         
      0     0    20421.2435    83                   Cuts: 110     9873         
      0     0    20421.2435    78                    Cuts: 77     9893         
      0     0    20421.2435    80                Flowcuts: 43     9905         
*     0+    0                        19985.2606    20421.2435             2.18%
Repair heuristic found nothing.
*     0+    0                        20352.2137    20420.6535             0.34%

Cover cuts applied:  2
Flow cuts applied:  152

Root node processing (before b&c):
  Real time             =   10.81 sec. (10736.36 ticks)
Parallel b&c, 32 threads:
  Real time             =    0.00 sec. (0.00 ticks)
  Sync time (average)   =    0.00 sec.
  Wait time (average)   =    0.00 sec.
                          ------------
Total (root+branch&cut) =   10.81 sec. (10736.36 ticks)

Solution pool: 2 solutions saved.

MIP - Integer optimal, tolerance (0.01/1e-06):  Objective =  2.0352213720e+04
Current MIP best bound =  2.0420653531e+04 (gap = 68.4398, 0.34%)
Solution time =   10.84 sec.  Iterations = 9905  Nodes = 0 (1)
Deterministic time = 10736.67 ticks  (990.10 ticks/sec)

CPLEX> Incumbent solution written to file 'C:\Users\llavin\Desktop\test826\logs\tmpk13qj1ts.cplex.sol'.
CPLEX> Exporting results... 
